benchmarks/VRPTW/TSPTW/solution/n40w20.005.txt.solution
1 29 6 39 22 25 13 27 35 33 3 28 14 4 12 15 30 18 19 7 5 17 20 38 9 34 37 21 23 10 26 24 8 2 31 40 16 32 41 11 36 
499
